\* Nurse_Scheduling *\
Minimize
OBJ: x_0_0 + x_0_1 + x_0_2 + x_0_3 + x_0_4 + x_0_5 + x_0_6 + x_0_7 + x_0_8
 + x_0_9 + x_1_0 + x_1_1 + x_1_2 + x_1_3 + x_1_4 + x_1_5 + x_1_6 + x_1_7
 + x_1_8 + x_1_9 + x_2_0 + x_2_1 + x_2_2 + x_2_3 + x_2_4 + x_2_5 + x_2_6
 + x_2_7 + x_2_8 + x_2_9 + x_3_0 + x_3_1 + x_3_2 + x_3_3 + x_3_4 + x_3_5
 + x_3_6 + x_3_7 + x_3_8 + x_3_9 + x_4_0 + x_4_1 + x_4_2 + x_4_3 + x_4_4
 + x_4_5 + x_4_6 + x_4_7 + x_4_8 + x_4_9
Subject To
_C1: x_0_0 + x_1_0 + x_2_0 + x_3_0 + x_4_0 >= 2
_C10: x_0_9 + x_1_9 + x_2_9 + x_3_9 + x_4_9 >= 2
_C11: x_0_0 + x_0_1 + x_0_2 + x_0_3 + x_0_4 + x_0_5 + x_0_6 + x_0_7 + x_0_8
 + x_0_9 <= 1
_C12: x_1_0 + x_1_1 + x_1_2 + x_1_3 + x_1_4 + x_1_5 + x_1_6 + x_1_7 + x_1_8
 + x_1_9 <= 1
_C13: x_2_0 + x_2_1 + x_2_2 + x_2_3 + x_2_4 + x_2_5 + x_2_6 + x_2_7 + x_2_8
 + x_2_9 <= 1
_C14: x_3_0 + x_3_1 + x_3_2 + x_3_3 + x_3_4 + x_3_5 + x_3_6 + x_3_7 + x_3_8
 + x_3_9 <= 1
_C15: x_4_0 + x_4_1 + x_4_2 + x_4_3 + x_4_4 + x_4_5 + x_4_6 + x_4_7 + x_4_8
 + x_4_9 <= 1
_C2: x_0_1 + x_1_1 + x_2_1 + x_3_1 + x_4_1 >= 2
_C3: x_0_2 + x_1_2 + x_2_2 + x_3_2 + x_4_2 >= 2
_C4: x_0_3 + x_1_3 + x_2_3 + x_3_3 + x_4_3 >= 2
_C5: x_0_4 + x_1_4 + x_2_4 + x_3_4 + x_4_4 >= 2
_C6: x_0_5 + x_1_5 + x_2_5 + x_3_5 + x_4_5 >= 2
_C7: x_0_6 + x_1_6 + x_2_6 + x_3_6 + x_4_6 >= 2
_C8: x_0_7 + x_1_7 + x_2_7 + x_3_7 + x_4_7 >= 2
_C9: x_0_8 + x_1_8 + x_2_8 + x_3_8 + x_4_8 >= 2
Binaries
x_0_0
x_0_1
x_0_2
x_0_3
x_0_4
x_0_5
x_0_6
x_0_7
x_0_8
x_0_9
x_1_0
x_1_1
x_1_2
x_1_3
x_1_4
x_1_5
x_1_6
x_1_7
x_1_8
x_1_9
x_2_0
x_2_1
x_2_2
x_2_3
x_2_4
x_2_5
x_2_6
x_2_7
x_2_8
x_2_9
x_3_0
x_3_1
x_3_2
x_3_3
x_3_4
x_3_5
x_3_6
x_3_7
x_3_8
x_3_9
x_4_0
x_4_1
x_4_2
x_4_3
x_4_4
x_4_5
x_4_6
x_4_7
x_4_8
x_4_9
End
